;---
; using 8-bit bit-vectors as characters
; check membership of .Net regex
; regexA = ^\w+(([-+']|[-+.]|\w+))*@\w+([-.]\w+)*\.\w+([-.]\w+)*$
;---
;(set-info :status sat)
;(set-option :print-success true)
(set-logic QF_S)

(declare-const regexA RegLan)
(declare-const x String)

;witness1: "0\'@p.\u00AA"
(define-fun Witness1 () String (str.++ "0" (str.++ "'" (str.++ "@" (str.++ "p" (str.++ "." (str.++ "\u{aa}" "")))))))
;witness2: "\u00DE\'-@\u00E8.ns-\u00F0.\u00B5-\u00F3.\u00AA"
(define-fun Witness2 () String (str.++ "\u{de}" (str.++ "'" (str.++ "-" (str.++ "@" (str.++ "\u{e8}" (str.++ "." (str.++ "n" (str.++ "s" (str.++ "-" (str.++ "\u{f0}" (str.++ "." (str.++ "\u{b5}" (str.++ "-" (str.++ "\u{f3}" (str.++ "." (str.++ "\u{aa}" "")))))))))))))))))

(assert (= regexA (re.++ (str.to_re "")(re.++ (re.+ (re.union (re.range "0" "9")(re.union (re.range "A" "Z")(re.union (re.range "_" "_")(re.union (re.range "a" "z")(re.union (re.range "\u{aa}" "\u{aa}")(re.union (re.range "\u{b5}" "\u{b5}")(re.union (re.range "\u{ba}" "\u{ba}")(re.union (re.range "\u{c0}" "\u{d6}")(re.union (re.range "\u{d8}" "\u{f6}") (re.range "\u{f8}" "\u{ff}")))))))))))(re.++ (re.* (re.union (re.union (re.range "'" "'")(re.union (re.range "+" "+") (re.range "-" "."))) (re.+ (re.union (re.range "0" "9")(re.union (re.range "A" "Z")(re.union (re.range "_" "_")(re.union (re.range "a" "z")(re.union (re.range "\u{aa}" "\u{aa}")(re.union (re.range "\u{b5}" "\u{b5}")(re.union (re.range "\u{ba}" "\u{ba}")(re.union (re.range "\u{c0}" "\u{d6}")(re.union (re.range "\u{d8}" "\u{f6}") (re.range "\u{f8}" "\u{ff}")))))))))))))(re.++ (re.range "@" "@")(re.++ (re.+ (re.union (re.range "0" "9")(re.union (re.range "A" "Z")(re.union (re.range "_" "_")(re.union (re.range "a" "z")(re.union (re.range "\u{aa}" "\u{aa}")(re.union (re.range "\u{b5}" "\u{b5}")(re.union (re.range "\u{ba}" "\u{ba}")(re.union (re.range "\u{c0}" "\u{d6}")(re.union (re.range "\u{d8}" "\u{f6}") (re.range "\u{f8}" "\u{ff}")))))))))))(re.++ (re.* (re.++ (re.range "-" ".") (re.+ (re.union (re.range "0" "9")(re.union (re.range "A" "Z")(re.union (re.range "_" "_")(re.union (re.range "a" "z")(re.union (re.range "\u{aa}" "\u{aa}")(re.union (re.range "\u{b5}" "\u{b5}")(re.union (re.range "\u{ba}" "\u{ba}")(re.union (re.range "\u{c0}" "\u{d6}")(re.union (re.range "\u{d8}" "\u{f6}") (re.range "\u{f8}" "\u{ff}")))))))))))))(re.++ (re.range "." ".")(re.++ (re.+ (re.union (re.range "0" "9")(re.union (re.range "A" "Z")(re.union (re.range "_" "_")(re.union (re.range "a" "z")(re.union (re.range "\u{aa}" "\u{aa}")(re.union (re.range "\u{b5}" "\u{b5}")(re.union (re.range "\u{ba}" "\u{ba}")(re.union (re.range "\u{c0}" "\u{d6}")(re.union (re.range "\u{d8}" "\u{f6}") (re.range "\u{f8}" "\u{ff}")))))))))))(re.++ (re.* (re.++ (re.range "-" ".") (re.+ (re.union (re.range "0" "9")(re.union (re.range "A" "Z")(re.union (re.range "_" "_")(re.union (re.range "a" "z")(re.union (re.range "\u{aa}" "\u{aa}")(re.union (re.range "\u{b5}" "\u{b5}")(re.union (re.range "\u{ba}" "\u{ba}")(re.union (re.range "\u{c0}" "\u{d6}")(re.union (re.range "\u{d8}" "\u{f6}") (re.range "\u{f8}" "\u{ff}"))))))))))))) (str.to_re ""))))))))))))

;check that the regex contains some x
(assert (str.in_re x regexA))
;check also the concrete witnesses
(assert (str.in_re Witness1 regexA))
(assert (str.in_re Witness2 regexA))
(check-sat)
